Maximize
  - 3.6688336875624 edge_0_1_0_0 - 5.286154516174 edge_0_2_0_0
   - 0.053122931451612 edge_0_3_0_0 - 2.0708680326735 edge_0_5_0_0
   - 1.66566068305 edge_0_6_0_0 - 2.7299788534084 edge_0_7_0_0
   - 3.2403484624194 edge_0_8_0_0 - 3.395597385388 edge_0_10_0_0
   - 3.4663285077955 edge_0_13_0_0 - 3.9465370797888 edge_0_16_0_0
   - 4.0460500883166 edge_0_19_0_0 - 0.4201829992980188 edge_1_3_0_0
   - 0.3216989821849897 edge_1_5_0_0 - 0.6387372363185029 edge_1_6_0_0
   - 1.047371229973099 edge_1_7_0_0 + 0.4681427927221594 edge_2_3_0_0
   - 0.5479439290257623 edge_2_5_0_0 - 0.7889800539908697 edge_2_6_0_0
   - 0.5736230207069667 edge_2_7_0_0 + 1.599235393409021 edge_3_1_0_0
   + 3.670178157659851 edge_3_2_0_0 + 1.029063418328882 edge_3_4_0_0
   + 3.794097632482028 edge_3_5_0_0 + 1.722782874701025 edge_3_6_0_0
   + 2.497756920522053 edge_3_7_0_0 + 1.65107951443084 edge_3_8_0_0
   + 1.709376172501581 edge_3_10_0_0 + 1.242368367434178 edge_3_11_0_0
   + 1.127364973148536 edge_3_13_0_0 + 1.072372449301769 edge_3_14_0_0
   + 0.4512437676413287 edge_3_15_0_0 + 0.877307633824319 edge_3_16_0_0
   + 1.413174880234409 edge_3_18_0_0 + 0.5864256938004407 edge_3_19_0_0
   + 3.848865470649833 edge_3_20_0_0 - 0.0951497490904267 edge_4_3_0_0
   + 1.388487168908439 edge_4_5_0_0 + 0.1759249183296736 edge_4_6_0_0
   + 0.4896047367667357 edge_4_7_0_0 + 0.2049252232506422 edge_4_8_0_0
   + 0.2502080910601426 edge_4_10_0_0 + 0.5577376738225012 edge_4_11_0_0
   + 0.2736466393143682 edge_4_13_0_0 + 0.7542375726370875 edge_4_14_0_0
   + 0.444170356870296 edge_4_18_0_0 + 0.4458416632667508 edge_4_20_0_0
   - 0.3535903233765393 edge_5_1_0_0 + 2.507670499930861 edge_5_2_0_0
   + 1.526941679140527 edge_5_3_0_0 + 3.217898721044043 edge_5_4_0_0
   + 1.250729967540202 edge_5_6_0_0 + 1.365038525757154 edge_5_7_0_0
   + 1.305449888720402 edge_5_8_0_0 + 0.7512643764500847 edge_5_10_0_0
   + 1.486515847301044 edge_5_11_0_0 + 0.5984769642866999 edge_5_13_0_0
   + 1.538886225061021 edge_5_14_0_0 + 0.3771710314984597 edge_5_15_0_0
   + 0.8798184440544903 edge_5_16_0_0 + 2.199420236486678 edge_5_18_0_0
   + 1.237266938786942 edge_5_19_0_0 + 0.6387252598570421 edge_5_20_0_0
   - 0.8245355288186844 edge_6_1_0_0 + 0.5897923298884979 edge_6_3_0_0
   + 0.6153365511775641 edge_6_4_0_0 + 0.348861879849678 edge_6_5_0_0
   + 1.254149503936707 edge_6_7_0_0 + 0.4576073798909001 edge_6_8_0_0
   + 0.3996354009825616 edge_6_10_0_0 + 0.3560748149393601 edge_6_11_0_0
   + 0.00396853790376914 edge_6_13_0_0 + 0.3991649322268618 edge_6_14_0_0
   - 0.2217546698989221 edge_6_16_0_0 + 0.4106166418684234 edge_6_18_0_0
   - 0.2881439650203722 edge_6_19_0_0 + 1.020528021616615 edge_6_20_0_0
   + 0.4973402300820556 edge_7_1_0_0 + 0.7646657461347764 edge_7_2_0_0
   + 0.8913120908609327 edge_7_3_0_0 + 1.504198054592621 edge_7_4_0_0
   + 1.540838335893199 edge_7_5_0_0 + 2.816814135707566 edge_7_6_0_0
   + 2.918734433987924 edge_7_8_0_0 + 3.018500671992649 edge_7_10_0_0
   + 2.771298704135468 edge_7_11_0_0 + 2.361819076854047 edge_7_13_0_0
   + 2.653602450753243 edge_7_14_0_0 + 1.108401825347186 edge_7_15_0_0
   + 2.004506906436779 edge_7_16_0_0 + 3.24178284693047 edge_7_18_0_0
   + 2.52071533901485 edge_7_19_0_0 + 1.774665971501081 edge_7_20_0_0
   - 1.574740315062866 edge_8_1_0_0 - 1.316023596545401 edge_8_3_0_0
   - 1.37649330247422 edge_8_5_0_0 - 0.5953544181217161 edge_8_6_0_0
   - 0.5796238394461152 edge_8_7_0_0 + 0.2912581325540741 edge_8_10_0_0
   - 0.0612970915215162 edge_8_11_0_0 - 0.5766185055101095 edge_10_1_0_0
   - 0.5342445001508181 edge_10_2_0_0 + 0.0163068745992062 edge_10_3_0_0
   + 1.005586281002466 edge_10_4_0_0 + 0.6265441442469168 edge_10_5_0_0
   + 0.6505625810444972 edge_10_6_0_0 + 1.640168638658976 edge_10_7_0_0
   + 1.270011532263449 edge_10_8_0_0 + 2.087880281388946 edge_10_11_0_0
   + 1.920876862276077 edge_10_13_0_0 + 2.034626745958231 edge_10_14_0_0
   + 0.664089115314803 edge_10_15_0_0 + 1.385766674701239 edge_10_16_0_0
   + 2.405665078699289 edge_10_18_0_0 + 1.711685290942421 edge_10_19_0_0
   + 0.8338477232672821 edge_10_20_0_0 - 1.291459045842773 edge_11_7_0_0
   - 0.5793824516006028 edge_11_8_0_0 - 0.5252576350024597 edge_11_10_0_0
   + 0.2263440177951904 edge_11_13_0_0 - 0.056104809146383 edge_11_14_0_0
   - 0.4169490818668523 edge_11_15_0_0 - 0.1280291291471269 edge_11_16_0_0
   - 0.7307995630692914 edge_13_1_0_0 - 0.7829949180565304 edge_13_2_0_0
   - 0.1760334836667391 edge_13_3_0_0 + 0.5064076832511581 edge_13_4_0_0
   + 0.300661341606178 edge_13_5_0_0 + 0.4549189783197684 edge_13_6_0_0
   + 0.6055976567185384 edge_13_7_0_0 + 0.20631114556493 edge_13_8_0_0
   + 1.61069339590873 edge_13_10_0_0 + 1.05867084854698 edge_13_11_0_0
   + 2.026919445062323 edge_13_14_0_0 + 0.6428168337801125 edge_13_15_0_0
   + 1.723637509563338 edge_13_16_0_0 + 2.326739129929752 edge_13_18_0_0
   + 1.743184952311111 edge_13_19_0_0 + 0.7855959110836249 edge_13_20_0_0
   - 1.226334959142303 edge_14_8_0_0 - 1.343574577060867 edge_14_10_0_0
   - 0.7562953071124954 edge_14_11_0_0 - 0.4824213429708626 edge_14_13_0_0
   - 0.3547318572453316 edge_14_15_0_0 + 0.1732632608995096 edge_14_16_0_0
   - 0.1424914458373877 edge_14_18_0_0 - 0.0857022517573269 edge_14_19_0_0
   - 0.1879068068098352 edge_14_20_0_0 - 0.6959036153123804 edge_15_3_0_0
   - 0.6997157617605948 edge_15_5_0_0 - 0.5578846705864901 edge_15_7_0_0
   - 0.527963766696967 edge_15_10_0_0 - 0.3700426228550748 edge_15_13_0_0
   - 0.1300517320968294 edge_15_14_0_0 - 0.0291634026544729 edge_15_16_0_0
   - 0.0802076742412553 edge_15_20_0_0 - 0.7392143208294056 edge_16_1_0_0
   - 0.2911414929273659 edge_16_3_0_0 + 0.18453498703753 edge_16_4_0_0
   + 0.1787211840669506 edge_16_5_0_0 + 0.2245555887451948 edge_16_6_0_0
   + 0.00813453083690978 edge_16_7_0_0 - 0.0904118429975148 edge_16_8_0_0
   + 0.5254728945423597 edge_16_10_0_0 + 0.1350485342618919 edge_16_11_0_0
   + 1.457208345975492 edge_16_13_0_0 + 0.9367493133582903 edge_16_14_0_0
   + 0.4594418271797292 edge_16_15_0_0 + 0.5684708653413032 edge_16_16_0_0
   + 2.083810172635093 edge_16_18_0_0 + 1.612671689503689 edge_16_19_0_0
   + 0.6583958352116935 edge_16_20_0_0 - 1.894514385761114 edge_18_3_0_0
   - 0.93634425218837 edge_18_11_0_0 - 0.6865334707658477 edge_18_13_0_0
   - 0.5230343162037001 edge_18_14_0_0 - 0.1585217925899409 edge_18_16_0_0
   + 0.688282683076613 edge_18_19_0_0 + 0.4625661713786083 edge_18_20_0_0
   - 1.430851322768539 edge_19_1_0_0 - 1.259550202051826 edge_19_3_0_0
   - 1.369547210942306 edge_19_5_0_0 - 0.2416648075205552 edge_19_6_0_0
   - 1.596372032530972 edge_19_7_0_0 - 0.8048253100511652 edge_19_10_0_0
   - 0.5218133418893774 edge_19_11_0_0 - 0.4782100845201205 edge_19_13_0_0
   - 0.2833878753484844 edge_19_14_0_0 + 0.0599848105836737 edge_19_16_0_0
   + 0.2704603615595749 edge_19_18_0_0 + 0.7471537127503701 edge_19_20_0_0
   - 0.6511311377417677 edge_20_16_0_0 - 0.845003673515363 edge_20_18_0_0
   + 0.0819740939916874 edge_20_19_0_0
Subject To
 one_parent_1: edge_0_1_0_0 + edge_3_1_0_0 + edge_5_1_0_0 + edge_6_1_0_0
   + edge_7_1_0_0 + edge_8_1_0_0 + edge_10_1_0_0 + edge_13_1_0_0
   + edge_16_1_0_0 + edge_19_1_0_0 = 1
 consume_one_flow_unit_1: flow_0_1_0_0 - flow_1_3_0_0 - flow_1_5_0_0
   - flow_1_6_0_0 - flow_1_7_0_0 + flow_3_1_0_0 + flow_5_1_0_0
   + flow_6_1_0_0 + flow_7_1_0_0 + flow_8_1_0_0 + flow_10_1_0_0
   + flow_13_1_0_0 + flow_16_1_0_0 + flow_19_1_0_0 = 1
 one_parent_2: edge_0_2_0_0 + edge_3_2_0_0 + edge_5_2_0_0 + edge_7_2_0_0
   + edge_10_2_0_0 + edge_13_2_0_0 = 1
 consume_one_flow_unit_2: flow_0_2_0_0 - flow_2_3_0_0 - flow_2_5_0_0
   - flow_2_6_0_0 - flow_2_7_0_0 + flow_3_2_0_0 + flow_5_2_0_0
   + flow_7_2_0_0 + flow_10_2_0_0 + flow_13_2_0_0 = 1
 one_parent_3: edge_0_3_0_0 + edge_1_3_0_0 + edge_2_3_0_0 + edge_4_3_0_0
   + edge_5_3_0_0 + edge_6_3_0_0 + edge_7_3_0_0 + edge_8_3_0_0
   + edge_10_3_0_0 + edge_13_3_0_0 + edge_15_3_0_0 + edge_16_3_0_0
   + edge_18_3_0_0 + edge_19_3_0_0 = 1
 consume_one_flow_unit_3: flow_0_3_0_0 + flow_1_3_0_0 + flow_2_3_0_0
   - flow_3_1_0_0 - flow_3_2_0_0 - flow_3_4_0_0 - flow_3_5_0_0
   - flow_3_6_0_0 - flow_3_7_0_0 - flow_3_8_0_0 - flow_3_10_0_0
   - flow_3_11_0_0 - flow_3_13_0_0 - flow_3_14_0_0 - flow_3_15_0_0
   - flow_3_16_0_0 - flow_3_18_0_0 - flow_3_19_0_0 - flow_3_20_0_0
   + flow_4_3_0_0 + flow_5_3_0_0 + flow_6_3_0_0 + flow_7_3_0_0
   + flow_8_3_0_0 + flow_10_3_0_0 + flow_13_3_0_0 + flow_15_3_0_0
   + flow_16_3_0_0 + flow_18_3_0_0 + flow_19_3_0_0 = 1
 one_parent_4: edge_3_4_0_0 + edge_5_4_0_0 + edge_6_4_0_0 + edge_7_4_0_0
   + edge_10_4_0_0 + edge_13_4_0_0 + edge_16_4_0_0 = 1
 consume_one_flow_unit_4: flow_3_4_0_0 - flow_4_3_0_0 - flow_4_5_0_0
   - flow_4_6_0_0 - flow_4_7_0_0 - flow_4_8_0_0 - flow_4_10_0_0
   - flow_4_11_0_0 - flow_4_13_0_0 - flow_4_14_0_0 - flow_4_18_0_0
   - flow_4_20_0_0 + flow_5_4_0_0 + flow_6_4_0_0 + flow_7_4_0_0
   + flow_10_4_0_0 + flow_13_4_0_0 + flow_16_4_0_0 = 1
 one_parent_5: edge_0_5_0_0 + edge_1_5_0_0 + edge_2_5_0_0 + edge_3_5_0_0
   + edge_4_5_0_0 + edge_6_5_0_0 + edge_7_5_0_0 + edge_8_5_0_0
   + edge_10_5_0_0 + edge_13_5_0_0 + edge_15_5_0_0 + edge_16_5_0_0
   + edge_19_5_0_0 = 1
 consume_one_flow_unit_5: flow_0_5_0_0 + flow_1_5_0_0 + flow_2_5_0_0
   + flow_3_5_0_0 + flow_4_5_0_0 - flow_5_1_0_0 - flow_5_2_0_0
   - flow_5_3_0_0 - flow_5_4_0_0 - flow_5_6_0_0 - flow_5_7_0_0
   - flow_5_8_0_0 - flow_5_10_0_0 - flow_5_11_0_0 - flow_5_13_0_0
   - flow_5_14_0_0 - flow_5_15_0_0 - flow_5_16_0_0 - flow_5_18_0_0
   - flow_5_19_0_0 - flow_5_20_0_0 + flow_6_5_0_0 + flow_7_5_0_0
   + flow_8_5_0_0 + flow_10_5_0_0 + flow_13_5_0_0 + flow_15_5_0_0
   + flow_16_5_0_0 + flow_19_5_0_0 = 1
 one_parent_6: edge_0_6_0_0 + edge_1_6_0_0 + edge_2_6_0_0 + edge_3_6_0_0
   + edge_4_6_0_0 + edge_5_6_0_0 + edge_7_6_0_0 + edge_8_6_0_0
   + edge_10_6_0_0 + edge_13_6_0_0 + edge_16_6_0_0 + edge_19_6_0_0 = 1
 consume_one_flow_unit_6: flow_0_6_0_0 + flow_1_6_0_0 + flow_2_6_0_0
   + flow_3_6_0_0 + flow_4_6_0_0 + flow_5_6_0_0 - flow_6_1_0_0
   - flow_6_3_0_0 - flow_6_4_0_0 - flow_6_5_0_0 - flow_6_7_0_0
   - flow_6_8_0_0 - flow_6_10_0_0 - flow_6_11_0_0 - flow_6_13_0_0
   - flow_6_14_0_0 - flow_6_16_0_0 - flow_6_18_0_0 - flow_6_19_0_0
   - flow_6_20_0_0 + flow_7_6_0_0 + flow_8_6_0_0 + flow_10_6_0_0
   + flow_13_6_0_0 + flow_16_6_0_0 + flow_19_6_0_0 = 1
 one_parent_7: edge_0_7_0_0 + edge_1_7_0_0 + edge_2_7_0_0 + edge_3_7_0_0
   + edge_4_7_0_0 + edge_5_7_0_0 + edge_6_7_0_0 + edge_8_7_0_0
   + edge_10_7_0_0 + edge_11_7_0_0 + edge_13_7_0_0 + edge_15_7_0_0
   + edge_16_7_0_0 + edge_19_7_0_0 = 1
 consume_one_flow_unit_7: flow_0_7_0_0 + flow_1_7_0_0 + flow_2_7_0_0
   + flow_3_7_0_0 + flow_4_7_0_0 + flow_5_7_0_0 + flow_6_7_0_0
   - flow_7_1_0_0 - flow_7_2_0_0 - flow_7_3_0_0 - flow_7_4_0_0
   - flow_7_5_0_0 - flow_7_6_0_0 - flow_7_8_0_0 - flow_7_10_0_0
   - flow_7_11_0_0 - flow_7_13_0_0 - flow_7_14_0_0 - flow_7_15_0_0
   - flow_7_16_0_0 - flow_7_18_0_0 - flow_7_19_0_0 - flow_7_20_0_0
   + flow_8_7_0_0 + flow_10_7_0_0 + flow_11_7_0_0 + flow_13_7_0_0
   + flow_15_7_0_0 + flow_16_7_0_0 + flow_19_7_0_0 = 1
 one_parent_8: edge_0_8_0_0 + edge_3_8_0_0 + edge_4_8_0_0 + edge_5_8_0_0
   + edge_6_8_0_0 + edge_7_8_0_0 + edge_10_8_0_0 + edge_11_8_0_0
   + edge_13_8_0_0 + edge_14_8_0_0 + edge_16_8_0_0 = 1
 consume_one_flow_unit_8: flow_0_8_0_0 + flow_3_8_0_0 + flow_4_8_0_0
   + flow_5_8_0_0 + flow_6_8_0_0 + flow_7_8_0_0 - flow_8_1_0_0
   - flow_8_3_0_0 - flow_8_5_0_0 - flow_8_6_0_0 - flow_8_7_0_0
   - flow_8_10_0_0 - flow_8_11_0_0 + flow_10_8_0_0 + flow_11_8_0_0
   + flow_13_8_0_0 + flow_14_8_0_0 + flow_16_8_0_0 = 1
 one_parent_9: = 1
 consume_one_flow_unit_9: = 1
 one_parent_10: edge_0_10_0_0 + edge_3_10_0_0 + edge_4_10_0_0
   + edge_5_10_0_0 + edge_6_10_0_0 + edge_7_10_0_0 + edge_8_10_0_0
   + edge_11_10_0_0 + edge_13_10_0_0 + edge_14_10_0_0 + edge_15_10_0_0
   + edge_16_10_0_0 + edge_19_10_0_0 = 1
 consume_one_flow_unit_10: flow_0_10_0_0 + flow_3_10_0_0 + flow_4_10_0_0
   + flow_5_10_0_0 + flow_6_10_0_0 + flow_7_10_0_0 + flow_8_10_0_0
   - flow_10_1_0_0 - flow_10_2_0_0 - flow_10_3_0_0 - flow_10_4_0_0
   - flow_10_5_0_0 - flow_10_6_0_0 - flow_10_7_0_0 - flow_10_8_0_0
   - flow_10_11_0_0 - flow_10_13_0_0 - flow_10_14_0_0 - flow_10_15_0_0
   - flow_10_16_0_0 - flow_10_18_0_0 - flow_10_19_0_0 - flow_10_20_0_0
   + flow_11_10_0_0 + flow_13_10_0_0 + flow_14_10_0_0 + flow_15_10_0_0
   + flow_16_10_0_0 + flow_19_10_0_0 = 1
 one_parent_11: edge_3_11_0_0 + edge_4_11_0_0 + edge_5_11_0_0
   + edge_6_11_0_0 + edge_7_11_0_0 + edge_8_11_0_0 + edge_10_11_0_0
   + edge_13_11_0_0 + edge_14_11_0_0 + edge_16_11_0_0 + edge_18_11_0_0
   + edge_19_11_0_0 = 1
 consume_one_flow_unit_11: flow_3_11_0_0 + flow_4_11_0_0 + flow_5_11_0_0
   + flow_6_11_0_0 + flow_7_11_0_0 + flow_8_11_0_0 + flow_10_11_0_0
   - flow_11_7_0_0 - flow_11_8_0_0 - flow_11_10_0_0 - flow_11_13_0_0
   - flow_11_14_0_0 - flow_11_15_0_0 - flow_11_16_0_0 + flow_13_11_0_0
   + flow_14_11_0_0 + flow_16_11_0_0 + flow_18_11_0_0 + flow_19_11_0_0 = 1
 one_parent_12: = 1
 consume_one_flow_unit_12: = 1
 one_parent_13: edge_0_13_0_0 + edge_3_13_0_0 + edge_4_13_0_0
   + edge_5_13_0_0 + edge_6_13_0_0 + edge_7_13_0_0 + edge_10_13_0_0
   + edge_11_13_0_0 + edge_14_13_0_0 + edge_15_13_0_0 + edge_16_13_0_0
   + edge_18_13_0_0 + edge_19_13_0_0 = 1
 consume_one_flow_unit_13: flow_0_13_0_0 + flow_3_13_0_0 + flow_4_13_0_0
   + flow_5_13_0_0 + flow_6_13_0_0 + flow_7_13_0_0 + flow_10_13_0_0
   + flow_11_13_0_0 - flow_13_1_0_0 - flow_13_2_0_0 - flow_13_3_0_0
   - flow_13_4_0_0 - flow_13_5_0_0 - flow_13_6_0_0 - flow_13_7_0_0
   - flow_13_8_0_0 - flow_13_10_0_0 - flow_13_11_0_0 - flow_13_14_0_0
   - flow_13_15_0_0 - flow_13_16_0_0 - flow_13_18_0_0 - flow_13_19_0_0
   - flow_13_20_0_0 + flow_14_13_0_0 + flow_15_13_0_0 + flow_16_13_0_0
   + flow_18_13_0_0 + flow_19_13_0_0 = 1
 one_parent_14: edge_3_14_0_0 + edge_4_14_0_0 + edge_5_14_0_0
   + edge_6_14_0_0 + edge_7_14_0_0 + edge_10_14_0_0 + edge_11_14_0_0
   + edge_13_14_0_0 + edge_15_14_0_0 + edge_16_14_0_0 + edge_18_14_0_0
   + edge_19_14_0_0 = 1
 consume_one_flow_unit_14: flow_3_14_0_0 + flow_4_14_0_0 + flow_5_14_0_0
   + flow_6_14_0_0 + flow_7_14_0_0 + flow_10_14_0_0 + flow_11_14_0_0
   + flow_13_14_0_0 - flow_14_8_0_0 - flow_14_10_0_0 - flow_14_11_0_0
   - flow_14_13_0_0 - flow_14_15_0_0 - flow_14_16_0_0 - flow_14_18_0_0
   - flow_14_19_0_0 - flow_14_20_0_0 + flow_15_14_0_0 + flow_16_14_0_0
   + flow_18_14_0_0 + flow_19_14_0_0 = 1
 one_parent_15: edge_3_15_0_0 + edge_5_15_0_0 + edge_7_15_0_0
   + edge_10_15_0_0 + edge_11_15_0_0 + edge_13_15_0_0 + edge_14_15_0_0
   + edge_16_15_0_0 = 1
 consume_one_flow_unit_15: flow_3_15_0_0 + flow_5_15_0_0 + flow_7_15_0_0
   + flow_10_15_0_0 + flow_11_15_0_0 + flow_13_15_0_0 + flow_14_15_0_0
   - flow_15_3_0_0 - flow_15_5_0_0 - flow_15_7_0_0 - flow_15_10_0_0
   - flow_15_13_0_0 - flow_15_14_0_0 - flow_15_16_0_0 - flow_15_20_0_0
   + flow_16_15_0_0 = 1
 one_parent_16: edge_0_16_0_0 + edge_3_16_0_0 + edge_5_16_0_0
   + edge_6_16_0_0 + edge_7_16_0_0 + edge_10_16_0_0 + edge_11_16_0_0
   + edge_13_16_0_0 + edge_14_16_0_0 + edge_15_16_0_0 + edge_16_16_0_0
   + edge_18_16_0_0 + edge_19_16_0_0 + edge_20_16_0_0 = 1
 consume_one_flow_unit_16: flow_0_16_0_0 + flow_3_16_0_0 + flow_5_16_0_0
   + flow_6_16_0_0 + flow_7_16_0_0 + flow_10_16_0_0 + flow_11_16_0_0
   + flow_13_16_0_0 + flow_14_16_0_0 + flow_15_16_0_0 - flow_16_1_0_0
   - flow_16_3_0_0 - flow_16_4_0_0 - flow_16_5_0_0 - flow_16_6_0_0
   - flow_16_7_0_0 - flow_16_8_0_0 - flow_16_10_0_0 - flow_16_11_0_0
   - flow_16_13_0_0 - flow_16_14_0_0 - flow_16_15_0_0 - flow_16_18_0_0
   - flow_16_19_0_0 - flow_16_20_0_0 + flow_18_16_0_0 + flow_19_16_0_0
   + flow_20_16_0_0 = 1
 one_parent_17: = 1
 consume_one_flow_unit_17: = 1
 one_parent_18: edge_3_18_0_0 + edge_4_18_0_0 + edge_5_18_0_0
   + edge_6_18_0_0 + edge_7_18_0_0 + edge_10_18_0_0 + edge_13_18_0_0
   + edge_14_18_0_0 + edge_16_18_0_0 + edge_19_18_0_0 + edge_20_18_0_0 = 1
 consume_one_flow_unit_18: flow_3_18_0_0 + flow_4_18_0_0 + flow_5_18_0_0
   + flow_6_18_0_0 + flow_7_18_0_0 + flow_10_18_0_0 + flow_13_18_0_0
   + flow_14_18_0_0 + flow_16_18_0_0 - flow_18_3_0_0 - flow_18_11_0_0
   - flow_18_13_0_0 - flow_18_14_0_0 - flow_18_16_0_0 - flow_18_19_0_0
   - flow_18_20_0_0 + flow_19_18_0_0 + flow_20_18_0_0 = 1
 one_parent_19: edge_0_19_0_0 + edge_3_19_0_0 + edge_5_19_0_0
   + edge_6_19_0_0 + edge_7_19_0_0 + edge_10_19_0_0 + edge_13_19_0_0
   + edge_14_19_0_0 + edge_16_19_0_0 + edge_18_19_0_0 + edge_20_19_0_0 = 1
 consume_one_flow_unit_19: flow_0_19_0_0 + flow_3_19_0_0 + flow_5_19_0_0
   + flow_6_19_0_0 + flow_7_19_0_0 + flow_10_19_0_0 + flow_13_19_0_0
   + flow_14_19_0_0 + flow_16_19_0_0 + flow_18_19_0_0 - flow_19_1_0_0
   - flow_19_3_0_0 - flow_19_5_0_0 - flow_19_6_0_0 - flow_19_7_0_0
   - flow_19_10_0_0 - flow_19_11_0_0 - flow_19_13_0_0 - flow_19_14_0_0
   - flow_19_16_0_0 - flow_19_18_0_0 - flow_19_20_0_0 + flow_20_19_0_0 = 1
 one_parent_20: edge_3_20_0_0 + edge_4_20_0_0 + edge_5_20_0_0
   + edge_6_20_0_0 + edge_7_20_0_0 + edge_10_20_0_0 + edge_13_20_0_0
   + edge_14_20_0_0 + edge_15_20_0_0 + edge_16_20_0_0 + edge_18_20_0_0
   + edge_19_20_0_0 = 1
 consume_one_flow_unit_20: flow_3_20_0_0 + flow_4_20_0_0 + flow_5_20_0_0
   + flow_6_20_0_0 + flow_7_20_0_0 + flow_10_20_0_0 + flow_13_20_0_0
   + flow_14_20_0_0 + flow_15_20_0_0 + flow_16_20_0_0 + flow_18_20_0_0
   + flow_19_20_0_0 - flow_20_16_0_0 - flow_20_18_0_0 - flow_20_19_0_0 = 1
 root_flow: flow_0_1_0_0 + flow_0_2_0_0 + flow_0_3_0_0 + flow_0_5_0_0
   + flow_0_6_0_0 + flow_0_7_0_0 + flow_0_8_0_0 + flow_0_10_0_0
   + flow_0_13_0_0 + flow_0_16_0_0 + flow_0_19_0_0 = 20
 inactive_no_flow_0_1_0_0: flow_0_1_0_0 - 1000 edge_0_1_0_0 <= 0
 inactive_no_flow_0_2_0_0: flow_0_2_0_0 - 1000 edge_0_2_0_0 <= 0
 inactive_no_flow_0_3_0_0: flow_0_3_0_0 - 1000 edge_0_3_0_0 <= 0
 inactive_no_flow_0_5_0_0: flow_0_5_0_0 - 1000 edge_0_5_0_0 <= 0
 inactive_no_flow_0_6_0_0: flow_0_6_0_0 - 1000 edge_0_6_0_0 <= 0
 inactive_no_flow_0_7_0_0: flow_0_7_0_0 - 1000 edge_0_7_0_0 <= 0
 inactive_no_flow_0_8_0_0: flow_0_8_0_0 - 1000 edge_0_8_0_0 <= 0
 inactive_no_flow_0_10_0_0: flow_0_10_0_0 - 1000 edge_0_10_0_0 <= 0
 inactive_no_flow_0_13_0_0: flow_0_13_0_0 - 1000 edge_0_13_0_0 <= 0
 inactive_no_flow_0_16_0_0: flow_0_16_0_0 - 1000 edge_0_16_0_0 <= 0
 inactive_no_flow_0_19_0_0: flow_0_19_0_0 - 1000 edge_0_19_0_0 <= 0
 inactive_no_flow_1_3_0_0: flow_1_3_0_0 - 1000 edge_1_3_0_0 <= 0
 inactive_no_flow_1_5_0_0: flow_1_5_0_0 - 1000 edge_1_5_0_0 <= 0
 inactive_no_flow_1_6_0_0: flow_1_6_0_0 - 1000 edge_1_6_0_0 <= 0
 inactive_no_flow_1_7_0_0: flow_1_7_0_0 - 1000 edge_1_7_0_0 <= 0
 inactive_no_flow_2_3_0_0: flow_2_3_0_0 - 1000 edge_2_3_0_0 <= 0
 inactive_no_flow_2_5_0_0: flow_2_5_0_0 - 1000 edge_2_5_0_0 <= 0
 inactive_no_flow_2_6_0_0: flow_2_6_0_0 - 1000 edge_2_6_0_0 <= 0
 inactive_no_flow_2_7_0_0: flow_2_7_0_0 - 1000 edge_2_7_0_0 <= 0
 inactive_no_flow_3_1_0_0: flow_3_1_0_0 - 1000 edge_3_1_0_0 <= 0
 inactive_no_flow_3_2_0_0: flow_3_2_0_0 - 1000 edge_3_2_0_0 <= 0
 inactive_no_flow_3_4_0_0: flow_3_4_0_0 - 1000 edge_3_4_0_0 <= 0
 inactive_no_flow_3_5_0_0: flow_3_5_0_0 - 1000 edge_3_5_0_0 <= 0
 inactive_no_flow_3_6_0_0: flow_3_6_0_0 - 1000 edge_3_6_0_0 <= 0
 inactive_no_flow_3_7_0_0: flow_3_7_0_0 - 1000 edge_3_7_0_0 <= 0
 inactive_no_flow_3_8_0_0: flow_3_8_0_0 - 1000 edge_3_8_0_0 <= 0
 inactive_no_flow_3_10_0_0: flow_3_10_0_0 - 1000 edge_3_10_0_0 <= 0
 inactive_no_flow_3_11_0_0: flow_3_11_0_0 - 1000 edge_3_11_0_0 <= 0
 inactive_no_flow_3_13_0_0: flow_3_13_0_0 - 1000 edge_3_13_0_0 <= 0
 inactive_no_flow_3_14_0_0: flow_3_14_0_0 - 1000 edge_3_14_0_0 <= 0
 inactive_no_flow_3_15_0_0: flow_3_15_0_0 - 1000 edge_3_15_0_0 <= 0
 inactive_no_flow_3_16_0_0: flow_3_16_0_0 - 1000 edge_3_16_0_0 <= 0
 inactive_no_flow_3_18_0_0: flow_3_18_0_0 - 1000 edge_3_18_0_0 <= 0
 inactive_no_flow_3_19_0_0: flow_3_19_0_0 - 1000 edge_3_19_0_0 <= 0
 inactive_no_flow_3_20_0_0: flow_3_20_0_0 - 1000 edge_3_20_0_0 <= 0
 inactive_no_flow_4_3_0_0: flow_4_3_0_0 - 1000 edge_4_3_0_0 <= 0
 inactive_no_flow_4_5_0_0: flow_4_5_0_0 - 1000 edge_4_5_0_0 <= 0
 inactive_no_flow_4_6_0_0: flow_4_6_0_0 - 1000 edge_4_6_0_0 <= 0
 inactive_no_flow_4_7_0_0: flow_4_7_0_0 - 1000 edge_4_7_0_0 <= 0
 inactive_no_flow_4_8_0_0: flow_4_8_0_0 - 1000 edge_4_8_0_0 <= 0
 inactive_no_flow_4_10_0_0: flow_4_10_0_0 - 1000 edge_4_10_0_0 <= 0
 inactive_no_flow_4_11_0_0: flow_4_11_0_0 - 1000 edge_4_11_0_0 <= 0
 inactive_no_flow_4_13_0_0: flow_4_13_0_0 - 1000 edge_4_13_0_0 <= 0
 inactive_no_flow_4_14_0_0: flow_4_14_0_0 - 1000 edge_4_14_0_0 <= 0
 inactive_no_flow_4_18_0_0: flow_4_18_0_0 - 1000 edge_4_18_0_0 <= 0
 inactive_no_flow_4_20_0_0: flow_4_20_0_0 - 1000 edge_4_20_0_0 <= 0
 inactive_no_flow_5_1_0_0: flow_5_1_0_0 - 1000 edge_5_1_0_0 <= 0
 inactive_no_flow_5_2_0_0: flow_5_2_0_0 - 1000 edge_5_2_0_0 <= 0
 inactive_no_flow_5_3_0_0: flow_5_3_0_0 - 1000 edge_5_3_0_0 <= 0
 inactive_no_flow_5_4_0_0: flow_5_4_0_0 - 1000 edge_5_4_0_0 <= 0
 inactive_no_flow_5_6_0_0: flow_5_6_0_0 - 1000 edge_5_6_0_0 <= 0
 inactive_no_flow_5_7_0_0: flow_5_7_0_0 - 1000 edge_5_7_0_0 <= 0
 inactive_no_flow_5_8_0_0: flow_5_8_0_0 - 1000 edge_5_8_0_0 <= 0
 inactive_no_flow_5_10_0_0: flow_5_10_0_0 - 1000 edge_5_10_0_0 <= 0
 inactive_no_flow_5_11_0_0: flow_5_11_0_0 - 1000 edge_5_11_0_0 <= 0
 inactive_no_flow_5_13_0_0: flow_5_13_0_0 - 1000 edge_5_13_0_0 <= 0
 inactive_no_flow_5_14_0_0: flow_5_14_0_0 - 1000 edge_5_14_0_0 <= 0
 inactive_no_flow_5_15_0_0: flow_5_15_0_0 - 1000 edge_5_15_0_0 <= 0
 inactive_no_flow_5_16_0_0: flow_5_16_0_0 - 1000 edge_5_16_0_0 <= 0
 inactive_no_flow_5_18_0_0: flow_5_18_0_0 - 1000 edge_5_18_0_0 <= 0
 inactive_no_flow_5_19_0_0: flow_5_19_0_0 - 1000 edge_5_19_0_0 <= 0
 inactive_no_flow_5_20_0_0: flow_5_20_0_0 - 1000 edge_5_20_0_0 <= 0
 inactive_no_flow_6_1_0_0: flow_6_1_0_0 - 1000 edge_6_1_0_0 <= 0
 inactive_no_flow_6_3_0_0: flow_6_3_0_0 - 1000 edge_6_3_0_0 <= 0
 inactive_no_flow_6_4_0_0: flow_6_4_0_0 - 1000 edge_6_4_0_0 <= 0
 inactive_no_flow_6_5_0_0: flow_6_5_0_0 - 1000 edge_6_5_0_0 <= 0
 inactive_no_flow_6_7_0_0: flow_6_7_0_0 - 1000 edge_6_7_0_0 <= 0
 inactive_no_flow_6_8_0_0: flow_6_8_0_0 - 1000 edge_6_8_0_0 <= 0
 inactive_no_flow_6_10_0_0: flow_6_10_0_0 - 1000 edge_6_10_0_0 <= 0
 inactive_no_flow_6_11_0_0: flow_6_11_0_0 - 1000 edge_6_11_0_0 <= 0
 inactive_no_flow_6_13_0_0: flow_6_13_0_0 - 1000 edge_6_13_0_0 <= 0
 inactive_no_flow_6_14_0_0: flow_6_14_0_0 - 1000 edge_6_14_0_0 <= 0
 inactive_no_flow_6_16_0_0: flow_6_16_0_0 - 1000 edge_6_16_0_0 <= 0
 inactive_no_flow_6_18_0_0: flow_6_18_0_0 - 1000 edge_6_18_0_0 <= 0
 inactive_no_flow_6_19_0_0: flow_6_19_0_0 - 1000 edge_6_19_0_0 <= 0
 inactive_no_flow_6_20_0_0: flow_6_20_0_0 - 1000 edge_6_20_0_0 <= 0
 inactive_no_flow_7_1_0_0: flow_7_1_0_0 - 1000 edge_7_1_0_0 <= 0
 inactive_no_flow_7_2_0_0: flow_7_2_0_0 - 1000 edge_7_2_0_0 <= 0
 inactive_no_flow_7_3_0_0: flow_7_3_0_0 - 1000 edge_7_3_0_0 <= 0
 inactive_no_flow_7_4_0_0: flow_7_4_0_0 - 1000 edge_7_4_0_0 <= 0
 inactive_no_flow_7_5_0_0: flow_7_5_0_0 - 1000 edge_7_5_0_0 <= 0
 inactive_no_flow_7_6_0_0: flow_7_6_0_0 - 1000 edge_7_6_0_0 <= 0
 inactive_no_flow_7_8_0_0: flow_7_8_0_0 - 1000 edge_7_8_0_0 <= 0
 inactive_no_flow_7_10_0_0: flow_7_10_0_0 - 1000 edge_7_10_0_0 <= 0
 inactive_no_flow_7_11_0_0: flow_7_11_0_0 - 1000 edge_7_11_0_0 <= 0
 inactive_no_flow_7_13_0_0: flow_7_13_0_0 - 1000 edge_7_13_0_0 <= 0
 inactive_no_flow_7_14_0_0: flow_7_14_0_0 - 1000 edge_7_14_0_0 <= 0
 inactive_no_flow_7_15_0_0: flow_7_15_0_0 - 1000 edge_7_15_0_0 <= 0
 inactive_no_flow_7_16_0_0: flow_7_16_0_0 - 1000 edge_7_16_0_0 <= 0
 inactive_no_flow_7_18_0_0: flow_7_18_0_0 - 1000 edge_7_18_0_0 <= 0
 inactive_no_flow_7_19_0_0: flow_7_19_0_0 - 1000 edge_7_19_0_0 <= 0
 inactive_no_flow_7_20_0_0: flow_7_20_0_0 - 1000 edge_7_20_0_0 <= 0
 inactive_no_flow_8_1_0_0: flow_8_1_0_0 - 1000 edge_8_1_0_0 <= 0
 inactive_no_flow_8_3_0_0: flow_8_3_0_0 - 1000 edge_8_3_0_0 <= 0
 inactive_no_flow_8_5_0_0: flow_8_5_0_0 - 1000 edge_8_5_0_0 <= 0
 inactive_no_flow_8_6_0_0: flow_8_6_0_0 - 1000 edge_8_6_0_0 <= 0
 inactive_no_flow_8_7_0_0: flow_8_7_0_0 - 1000 edge_8_7_0_0 <= 0
 inactive_no_flow_8_10_0_0: flow_8_10_0_0 - 1000 edge_8_10_0_0 <= 0
 inactive_no_flow_8_11_0_0: flow_8_11_0_0 - 1000 edge_8_11_0_0 <= 0
 inactive_no_flow_10_1_0_0: flow_10_1_0_0 - 1000 edge_10_1_0_0 <= 0
 inactive_no_flow_10_2_0_0: flow_10_2_0_0 - 1000 edge_10_2_0_0 <= 0
 inactive_no_flow_10_3_0_0: flow_10_3_0_0 - 1000 edge_10_3_0_0 <= 0
 inactive_no_flow_10_4_0_0: flow_10_4_0_0 - 1000 edge_10_4_0_0 <= 0
 inactive_no_flow_10_5_0_0: flow_10_5_0_0 - 1000 edge_10_5_0_0 <= 0
 inactive_no_flow_10_6_0_0: flow_10_6_0_0 - 1000 edge_10_6_0_0 <= 0
 inactive_no_flow_10_7_0_0: flow_10_7_0_0 - 1000 edge_10_7_0_0 <= 0
 inactive_no_flow_10_8_0_0: flow_10_8_0_0 - 1000 edge_10_8_0_0 <= 0
 inactive_no_flow_10_11_0_0: flow_10_11_0_0 - 1000 edge_10_11_0_0 <= 0
 inactive_no_flow_10_13_0_0: flow_10_13_0_0 - 1000 edge_10_13_0_0 <= 0
 inactive_no_flow_10_14_0_0: flow_10_14_0_0 - 1000 edge_10_14_0_0 <= 0
 inactive_no_flow_10_15_0_0: flow_10_15_0_0 - 1000 edge_10_15_0_0 <= 0
 inactive_no_flow_10_16_0_0: flow_10_16_0_0 - 1000 edge_10_16_0_0 <= 0
 inactive_no_flow_10_18_0_0: flow_10_18_0_0 - 1000 edge_10_18_0_0 <= 0
 inactive_no_flow_10_19_0_0: flow_10_19_0_0 - 1000 edge_10_19_0_0 <= 0
 inactive_no_flow_10_20_0_0: flow_10_20_0_0 - 1000 edge_10_20_0_0 <= 0
 inactive_no_flow_11_7_0_0: flow_11_7_0_0 - 1000 edge_11_7_0_0 <= 0
 inactive_no_flow_11_8_0_0: flow_11_8_0_0 - 1000 edge_11_8_0_0 <= 0
 inactive_no_flow_11_10_0_0: flow_11_10_0_0 - 1000 edge_11_10_0_0 <= 0
 inactive_no_flow_11_13_0_0: flow_11_13_0_0 - 1000 edge_11_13_0_0 <= 0
 inactive_no_flow_11_14_0_0: flow_11_14_0_0 - 1000 edge_11_14_0_0 <= 0
 inactive_no_flow_11_15_0_0: flow_11_15_0_0 - 1000 edge_11_15_0_0 <= 0
 inactive_no_flow_11_16_0_0: flow_11_16_0_0 - 1000 edge_11_16_0_0 <= 0
 inactive_no_flow_13_1_0_0: flow_13_1_0_0 - 1000 edge_13_1_0_0 <= 0
 inactive_no_flow_13_2_0_0: flow_13_2_0_0 - 1000 edge_13_2_0_0 <= 0
 inactive_no_flow_13_3_0_0: flow_13_3_0_0 - 1000 edge_13_3_0_0 <= 0
 inactive_no_flow_13_4_0_0: flow_13_4_0_0 - 1000 edge_13_4_0_0 <= 0
 inactive_no_flow_13_5_0_0: flow_13_5_0_0 - 1000 edge_13_5_0_0 <= 0
 inactive_no_flow_13_6_0_0: flow_13_6_0_0 - 1000 edge_13_6_0_0 <= 0
 inactive_no_flow_13_7_0_0: flow_13_7_0_0 - 1000 edge_13_7_0_0 <= 0
 inactive_no_flow_13_8_0_0: flow_13_8_0_0 - 1000 edge_13_8_0_0 <= 0
 inactive_no_flow_13_10_0_0: flow_13_10_0_0 - 1000 edge_13_10_0_0 <= 0
 inactive_no_flow_13_11_0_0: flow_13_11_0_0 - 1000 edge_13_11_0_0 <= 0
 inactive_no_flow_13_14_0_0: flow_13_14_0_0 - 1000 edge_13_14_0_0 <= 0
 inactive_no_flow_13_15_0_0: flow_13_15_0_0 - 1000 edge_13_15_0_0 <= 0
 inactive_no_flow_13_16_0_0: flow_13_16_0_0 - 1000 edge_13_16_0_0 <= 0
 inactive_no_flow_13_18_0_0: flow_13_18_0_0 - 1000 edge_13_18_0_0 <= 0
 inactive_no_flow_13_19_0_0: flow_13_19_0_0 - 1000 edge_13_19_0_0 <= 0
 inactive_no_flow_13_20_0_0: flow_13_20_0_0 - 1000 edge_13_20_0_0 <= 0
 inactive_no_flow_14_8_0_0: flow_14_8_0_0 - 1000 edge_14_8_0_0 <= 0
 inactive_no_flow_14_10_0_0: flow_14_10_0_0 - 1000 edge_14_10_0_0 <= 0
 inactive_no_flow_14_11_0_0: flow_14_11_0_0 - 1000 edge_14_11_0_0 <= 0
 inactive_no_flow_14_13_0_0: flow_14_13_0_0 - 1000 edge_14_13_0_0 <= 0
 inactive_no_flow_14_15_0_0: flow_14_15_0_0 - 1000 edge_14_15_0_0 <= 0
 inactive_no_flow_14_16_0_0: flow_14_16_0_0 - 1000 edge_14_16_0_0 <= 0
 inactive_no_flow_14_18_0_0: flow_14_18_0_0 - 1000 edge_14_18_0_0 <= 0
 inactive_no_flow_14_19_0_0: flow_14_19_0_0 - 1000 edge_14_19_0_0 <= 0
 inactive_no_flow_14_20_0_0: flow_14_20_0_0 - 1000 edge_14_20_0_0 <= 0
 inactive_no_flow_15_3_0_0: flow_15_3_0_0 - 1000 edge_15_3_0_0 <= 0
 inactive_no_flow_15_5_0_0: flow_15_5_0_0 - 1000 edge_15_5_0_0 <= 0
 inactive_no_flow_15_7_0_0: flow_15_7_0_0 - 1000 edge_15_7_0_0 <= 0
 inactive_no_flow_15_10_0_0: flow_15_10_0_0 - 1000 edge_15_10_0_0 <= 0
 inactive_no_flow_15_13_0_0: flow_15_13_0_0 - 1000 edge_15_13_0_0 <= 0
 inactive_no_flow_15_14_0_0: flow_15_14_0_0 - 1000 edge_15_14_0_0 <= 0
 inactive_no_flow_15_16_0_0: flow_15_16_0_0 - 1000 edge_15_16_0_0 <= 0
 inactive_no_flow_15_20_0_0: flow_15_20_0_0 - 1000 edge_15_20_0_0 <= 0
 inactive_no_flow_16_1_0_0: flow_16_1_0_0 - 1000 edge_16_1_0_0 <= 0
 inactive_no_flow_16_3_0_0: flow_16_3_0_0 - 1000 edge_16_3_0_0 <= 0
 inactive_no_flow_16_4_0_0: flow_16_4_0_0 - 1000 edge_16_4_0_0 <= 0
 inactive_no_flow_16_5_0_0: flow_16_5_0_0 - 1000 edge_16_5_0_0 <= 0
 inactive_no_flow_16_6_0_0: flow_16_6_0_0 - 1000 edge_16_6_0_0 <= 0
 inactive_no_flow_16_7_0_0: flow_16_7_0_0 - 1000 edge_16_7_0_0 <= 0
 inactive_no_flow_16_8_0_0: flow_16_8_0_0 - 1000 edge_16_8_0_0 <= 0
 inactive_no_flow_16_10_0_0: flow_16_10_0_0 - 1000 edge_16_10_0_0 <= 0
 inactive_no_flow_16_11_0_0: flow_16_11_0_0 - 1000 edge_16_11_0_0 <= 0
 inactive_no_flow_16_13_0_0: flow_16_13_0_0 - 1000 edge_16_13_0_0 <= 0
 inactive_no_flow_16_14_0_0: flow_16_14_0_0 - 1000 edge_16_14_0_0 <= 0
 inactive_no_flow_16_15_0_0: flow_16_15_0_0 - 1000 edge_16_15_0_0 <= 0
 inactive_no_flow_16_16_0_0: flow_16_16_0_0 - 1000 edge_16_16_0_0 <= 0
 inactive_no_flow_16_18_0_0: flow_16_18_0_0 - 1000 edge_16_18_0_0 <= 0
 inactive_no_flow_16_19_0_0: flow_16_19_0_0 - 1000 edge_16_19_0_0 <= 0
 inactive_no_flow_16_20_0_0: flow_16_20_0_0 - 1000 edge_16_20_0_0 <= 0
 inactive_no_flow_18_3_0_0: flow_18_3_0_0 - 1000 edge_18_3_0_0 <= 0
 inactive_no_flow_18_11_0_0: flow_18_11_0_0 - 1000 edge_18_11_0_0 <= 0
 inactive_no_flow_18_13_0_0: flow_18_13_0_0 - 1000 edge_18_13_0_0 <= 0
 inactive_no_flow_18_14_0_0: flow_18_14_0_0 - 1000 edge_18_14_0_0 <= 0
 inactive_no_flow_18_16_0_0: flow_18_16_0_0 - 1000 edge_18_16_0_0 <= 0
 inactive_no_flow_18_19_0_0: flow_18_19_0_0 - 1000 edge_18_19_0_0 <= 0
 inactive_no_flow_18_20_0_0: flow_18_20_0_0 - 1000 edge_18_20_0_0 <= 0
 inactive_no_flow_19_1_0_0: flow_19_1_0_0 - 1000 edge_19_1_0_0 <= 0
 inactive_no_flow_19_3_0_0: flow_19_3_0_0 - 1000 edge_19_3_0_0 <= 0
 inactive_no_flow_19_5_0_0: flow_19_5_0_0 - 1000 edge_19_5_0_0 <= 0
 inactive_no_flow_19_6_0_0: flow_19_6_0_0 - 1000 edge_19_6_0_0 <= 0
 inactive_no_flow_19_7_0_0: flow_19_7_0_0 - 1000 edge_19_7_0_0 <= 0
 inactive_no_flow_19_10_0_0: flow_19_10_0_0 - 1000 edge_19_10_0_0 <= 0
 inactive_no_flow_19_11_0_0: flow_19_11_0_0 - 1000 edge_19_11_0_0 <= 0
 inactive_no_flow_19_13_0_0: flow_19_13_0_0 - 1000 edge_19_13_0_0 <= 0
 inactive_no_flow_19_14_0_0: flow_19_14_0_0 - 1000 edge_19_14_0_0 <= 0
 inactive_no_flow_19_16_0_0: flow_19_16_0_0 - 1000 edge_19_16_0_0 <= 0
 inactive_no_flow_19_18_0_0: flow_19_18_0_0 - 1000 edge_19_18_0_0 <= 0
 inactive_no_flow_19_20_0_0: flow_19_20_0_0 - 1000 edge_19_20_0_0 <= 0
 inactive_no_flow_20_16_0_0: flow_20_16_0_0 - 1000 edge_20_16_0_0 <= 0
 inactive_no_flow_20_18_0_0: flow_20_18_0_0 - 1000 edge_20_18_0_0 <= 0
 inactive_no_flow_20_19_0_0: flow_20_19_0_0 - 1000 edge_20_19_0_0 <= 0
Bounds
Binaries
 edge_0_1_0_0 edge_0_2_0_0 edge_0_3_0_0 edge_0_5_0_0 edge_0_6_0_0
 edge_0_7_0_0 edge_0_8_0_0 edge_0_10_0_0 edge_0_13_0_0 edge_0_16_0_0
 edge_0_19_0_0 edge_1_3_0_0 edge_1_5_0_0 edge_1_6_0_0 edge_1_7_0_0
 edge_2_3_0_0 edge_2_5_0_0 edge_2_6_0_0 edge_2_7_0_0 edge_3_1_0_0
 edge_3_2_0_0 edge_3_4_0_0 edge_3_5_0_0 edge_3_6_0_0 edge_3_7_0_0
 edge_3_8_0_0 edge_3_10_0_0 edge_3_11_0_0 edge_3_13_0_0 edge_3_14_0_0
 edge_3_15_0_0 edge_3_16_0_0 edge_3_18_0_0 edge_3_19_0_0 edge_3_20_0_0
 edge_4_3_0_0 edge_4_5_0_0 edge_4_6_0_0 edge_4_7_0_0 edge_4_8_0_0
 edge_4_10_0_0 edge_4_11_0_0 edge_4_13_0_0 edge_4_14_0_0 edge_4_18_0_0
 edge_4_20_0_0 edge_5_1_0_0 edge_5_2_0_0 edge_5_3_0_0 edge_5_4_0_0
 edge_5_6_0_0 edge_5_7_0_0 edge_5_8_0_0 edge_5_10_0_0 edge_5_11_0_0
 edge_5_13_0_0 edge_5_14_0_0 edge_5_15_0_0 edge_5_16_0_0 edge_5_18_0_0
 edge_5_19_0_0 edge_5_20_0_0 edge_6_1_0_0 edge_6_3_0_0 edge_6_4_0_0
 edge_6_5_0_0 edge_6_7_0_0 edge_6_8_0_0 edge_6_10_0_0 edge_6_11_0_0
 edge_6_13_0_0 edge_6_14_0_0 edge_6_16_0_0 edge_6_18_0_0 edge_6_19_0_0
 edge_6_20_0_0 edge_7_1_0_0 edge_7_2_0_0 edge_7_3_0_0 edge_7_4_0_0
 edge_7_5_0_0 edge_7_6_0_0 edge_7_8_0_0 edge_7_10_0_0 edge_7_11_0_0
 edge_7_13_0_0 edge_7_14_0_0 edge_7_15_0_0 edge_7_16_0_0 edge_7_18_0_0
 edge_7_19_0_0 edge_7_20_0_0 edge_8_1_0_0 edge_8_3_0_0 edge_8_5_0_0
 edge_8_6_0_0 edge_8_7_0_0 edge_8_10_0_0 edge_8_11_0_0 edge_10_1_0_0
 edge_10_2_0_0 edge_10_3_0_0 edge_10_4_0_0 edge_10_5_0_0 edge_10_6_0_0
 edge_10_7_0_0 edge_10_8_0_0 edge_10_11_0_0 edge_10_13_0_0 edge_10_14_0_0
 edge_10_15_0_0 edge_10_16_0_0 edge_10_18_0_0 edge_10_19_0_0 edge_10_20_0_0
 edge_11_7_0_0 edge_11_8_0_0 edge_11_10_0_0 edge_11_13_0_0 edge_11_14_0_0
 edge_11_15_0_0 edge_11_16_0_0 edge_13_1_0_0 edge_13_2_0_0 edge_13_3_0_0
 edge_13_4_0_0 edge_13_5_0_0 edge_13_6_0_0 edge_13_7_0_0 edge_13_8_0_0
 edge_13_10_0_0 edge_13_11_0_0 edge_13_14_0_0 edge_13_15_0_0 edge_13_16_0_0
 edge_13_18_0_0 edge_13_19_0_0 edge_13_20_0_0 edge_14_8_0_0 edge_14_10_0_0
 edge_14_11_0_0 edge_14_13_0_0 edge_14_15_0_0 edge_14_16_0_0 edge_14_18_0_0
 edge_14_19_0_0 edge_14_20_0_0 edge_15_3_0_0 edge_15_5_0_0 edge_15_7_0_0
 edge_15_10_0_0 edge_15_13_0_0 edge_15_14_0_0 edge_15_16_0_0 edge_15_20_0_0
 edge_16_1_0_0 edge_16_3_0_0 edge_16_4_0_0 edge_16_5_0_0 edge_16_6_0_0
 edge_16_7_0_0 edge_16_8_0_0 edge_16_10_0_0 edge_16_11_0_0 edge_16_13_0_0
 edge_16_14_0_0 edge_16_15_0_0 edge_16_16_0_0 edge_16_18_0_0 edge_16_19_0_0
 edge_16_20_0_0 edge_18_3_0_0 edge_18_11_0_0 edge_18_13_0_0 edge_18_14_0_0
 edge_18_16_0_0 edge_18_19_0_0 edge_18_20_0_0 edge_19_1_0_0 edge_19_3_0_0
 edge_19_5_0_0 edge_19_6_0_0 edge_19_7_0_0 edge_19_10_0_0 edge_19_11_0_0
 edge_19_13_0_0 edge_19_14_0_0 edge_19_16_0_0 edge_19_18_0_0 edge_19_20_0_0
 edge_20_16_0_0 edge_20_18_0_0 edge_20_19_0_0
End
